p cnf 332 1516
c p weight 136 0 0
c p weight -136 1 0
c p weight 137 1 0
c p weight -137 1 0
c p weight 329 -1 0
c p weight -329 1 0
c p weight 332 0.5 0
332 0
-131 0
-129 0
-127 0
-125 0
-123 0
-121 0
-119 0
-117 0
-115 0
-113 0
-111 0
-109 0
-107 0
-105 0
-103 0
-101 0
-99 0
-97 0
-95 0
-93 0
-91 0
-89 0
-87 0
-85 0
-83 0
-81 0
-79 0
-77 0
-75 0
-73 0
-71 0
-69 0
-67 0
-65 0
-63 0
-61 0
-59 0
-57 0
-55 0
-53 0
-51 0
-49 0
-47 0
-45 0
-43 0
-41 0
-39 0
-37 0
-35 0
-33 0
-31 0
-29 0
-27 0
-25 0
-23 0
-21 0
-19 0
-17 0
-15 0
-13 0
-11 0
-9 0
-7 0
-5 0
-3 0
-1 0
132 -131 129 0
132 -131 130 0
-132 131 129 0
-132 131 130 0
132 131 -129 -130 0
-132 -131 -129 -130 0
133 129 -130 0
133 -129 130 0
-133 129 130 0
-133 -129 -130 0
134 135 -132 0
134 -132 133 0
-134 135 132 0
-134 132 133 0
134 -132 -129 0
-134 132 -129 0
134 -135 132 129 -133 0
-134 -135 -132 129 -133 0
135 -129 133 0
-135 129 133 0
-136 133 0
135 -136 -129 0
-135 -136 129 0
135 136 129 -133 0
-135 136 -129 -133 0
-137 133 0
135 -137 129 0
-135 -137 -129 0
135 137 -129 -133 0
-135 137 129 -133 0
138 -134 135 0
138 -134 133 0
-138 134 135 0
-138 134 133 0
138 134 -135 -133 0
-138 -134 -135 -133 0
139 135 -133 0
139 -135 133 0
-139 135 133 0
-139 -135 -133 0
140 -138 135 0
140 -138 128 0
-140 138 135 0
-140 138 128 0
140 -138 127 -139 0
140 -138 -127 139 0
-140 138 127 -139 0
-140 138 -127 139 0
140 138 -135 127 139 -128 0
140 138 -135 -127 -139 -128 0
-140 -138 -135 127 139 -128 0
-140 -138 -135 -127 -139 -128 0
142 135 -127 0
142 -135 127 0
-142 135 127 0
-142 -135 -127 0
141 139 -128 0
141 -139 128 0
-141 139 128 0
-141 -139 -128 0
143 -140 142 0
143 -140 126 0
-143 140 142 0
-143 140 126 0
143 -140 125 -128 0
143 -140 -125 128 0
-143 140 125 -128 0
-143 140 -125 128 0
143 140 -142 125 128 -126 0
143 140 -142 -125 -128 -126 0
-143 -140 -142 125 128 -126 0
-143 -140 -142 -125 -128 -126 0
145 142 -125 0
145 -142 125 0
-145 142 125 0
-145 -142 -125 0
144 128 -126 0
144 -128 126 0
-144 128 126 0
-144 -128 -126 0
146 -143 145 0
146 -143 124 0
-146 143 145 0
-146 143 124 0
146 -143 123 -126 0
146 -143 -123 126 0
-146 143 123 -126 0
-146 143 -123 126 0
146 143 -145 123 126 -124 0
146 143 -145 -123 -126 -124 0
-146 -143 -145 123 126 -124 0
-146 -143 -145 -123 -126 -124 0
148 145 -123 0
148 -145 123 0
-148 145 123 0
-148 -145 -123 0
147 126 -124 0
147 -126 124 0
-147 126 124 0
-147 -126 -124 0
149 -146 148 0
149 -146 122 0
-149 146 148 0
-149 146 122 0
149 -146 121 -124 0
149 -146 -121 124 0
-149 146 121 -124 0
-149 146 -121 124 0
149 146 -148 121 124 -122 0
149 146 -148 -121 -124 -122 0
-149 -146 -148 121 124 -122 0
-149 -146 -148 -121 -124 -122 0
151 148 -121 0
151 -148 121 0
-151 148 121 0
-151 -148 -121 0
150 124 -122 0
150 -124 122 0
-150 124 122 0
-150 -124 -122 0
152 -149 151 0
152 -149 120 0
-152 149 151 0
-152 149 120 0
152 -149 119 -122 0
152 -149 -119 122 0
-152 149 119 -122 0
-152 149 -119 122 0
152 149 -151 119 122 -120 0
152 149 -151 -119 -122 -120 0
-152 -149 -151 119 122 -120 0
-152 -149 -151 -119 -122 -120 0
154 151 -119 0
154 -151 119 0
-154 151 119 0
-154 -151 -119 0
153 122 -120 0
153 -122 120 0
-153 122 120 0
-153 -122 -120 0
155 -152 154 0
155 -152 118 0
-155 152 154 0
-155 152 118 0
155 -152 117 -120 0
155 -152 -117 120 0
-155 152 117 -120 0
-155 152 -117 120 0
155 152 -154 117 120 -118 0
155 152 -154 -117 -120 -118 0
-155 -152 -154 117 120 -118 0
-155 -152 -154 -117 -120 -118 0
157 154 -117 0
157 -154 117 0
-157 154 117 0
-157 -154 -117 0
156 120 -118 0
156 -120 118 0
-156 120 118 0
-156 -120 -118 0
158 -155 157 0
158 -155 116 0
-158 155 157 0
-158 155 116 0
158 -155 115 -118 0
158 -155 -115 118 0
-158 155 115 -118 0
-158 155 -115 118 0
158 155 -157 115 118 -116 0
158 155 -157 -115 -118 -116 0
-158 -155 -157 115 118 -116 0
-158 -155 -157 -115 -118 -116 0
160 157 -115 0
160 -157 115 0
-160 157 115 0
-160 -157 -115 0
159 118 -116 0
159 -118 116 0
-159 118 116 0
-159 -118 -116 0
161 -158 160 0
161 -158 114 0
-161 158 160 0
-161 158 114 0
161 -158 113 -116 0
161 -158 -113 116 0
-161 158 113 -116 0
-161 158 -113 116 0
161 158 -160 113 116 -114 0
161 158 -160 -113 -116 -114 0
-161 -158 -160 113 116 -114 0
-161 -158 -160 -113 -116 -114 0
163 160 -113 0
163 -160 113 0
-163 160 113 0
-163 -160 -113 0
162 116 -114 0
162 -116 114 0
-162 116 114 0
-162 -116 -114 0
164 -161 163 0
164 -161 112 0
-164 161 163 0
-164 161 112 0
164 -161 111 -114 0
164 -161 -111 114 0
-164 161 111 -114 0
-164 161 -111 114 0
164 161 -163 111 114 -112 0
164 161 -163 -111 -114 -112 0
-164 -161 -163 111 114 -112 0
-164 -161 -163 -111 -114 -112 0
166 163 -111 0
166 -163 111 0
-166 163 111 0
-166 -163 -111 0
165 114 -112 0
165 -114 112 0
-165 114 112 0
-165 -114 -112 0
167 -164 166 0
167 -164 110 0
-167 164 166 0
-167 164 110 0
167 -164 109 -112 0
167 -164 -109 112 0
-167 164 109 -112 0
-167 164 -109 112 0
167 164 -166 109 112 -110 0
167 164 -166 -109 -112 -110 0
-167 -164 -166 109 112 -110 0
-167 -164 -166 -109 -112 -110 0
169 166 -109 0
169 -166 109 0
-169 166 109 0
-169 -166 -109 0
168 112 -110 0
168 -112 110 0
-168 112 110 0
-168 -112 -110 0
170 -167 169 0
170 -167 108 0
-170 167 169 0
-170 167 108 0
170 -167 107 -110 0
170 -167 -107 110 0
-170 167 107 -110 0
-170 167 -107 110 0
170 167 -169 107 110 -108 0
170 167 -169 -107 -110 -108 0
-170 -167 -169 107 110 -108 0
-170 -167 -169 -107 -110 -108 0
172 169 -107 0
172 -169 107 0
-172 169 107 0
-172 -169 -107 0
171 110 -108 0
171 -110 108 0
-171 110 108 0
-171 -110 -108 0
173 -170 172 0
173 -170 106 0
-173 170 172 0
-173 170 106 0
173 -170 105 -108 0
173 -170 -105 108 0
-173 170 105 -108 0
-173 170 -105 108 0
173 170 -172 105 108 -106 0
173 170 -172 -105 -108 -106 0
-173 -170 -172 105 108 -106 0
-173 -170 -172 -105 -108 -106 0
175 172 -105 0
175 -172 105 0
-175 172 105 0
-175 -172 -105 0
174 108 -106 0
174 -108 106 0
-174 108 106 0
-174 -108 -106 0
176 -173 175 0
176 -173 104 0
-176 173 175 0
-176 173 104 0
176 -173 103 -106 0
176 -173 -103 106 0
-176 173 103 -106 0
-176 173 -103 106 0
176 173 -175 103 106 -104 0
176 173 -175 -103 -106 -104 0
-176 -173 -175 103 106 -104 0
-176 -173 -175 -103 -106 -104 0
178 175 -103 0
178 -175 103 0
-178 175 103 0
-178 -175 -103 0
177 106 -104 0
177 -106 104 0
-177 106 104 0
-177 -106 -104 0
179 -176 178 0
179 -176 102 0
-179 176 178 0
-179 176 102 0
179 -176 101 -104 0
179 -176 -101 104 0
-179 176 101 -104 0
-179 176 -101 104 0
179 176 -178 101 104 -102 0
179 176 -178 -101 -104 -102 0
-179 -176 -178 101 104 -102 0
-179 -176 -178 -101 -104 -102 0
181 178 -101 0
181 -178 101 0
-181 178 101 0
-181 -178 -101 0
180 104 -102 0
180 -104 102 0
-180 104 102 0
-180 -104 -102 0
182 -179 181 0
182 -179 100 0
-182 179 181 0
-182 179 100 0
182 -179 99 -102 0
182 -179 -99 102 0
-182 179 99 -102 0
-182 179 -99 102 0
182 179 -181 99 102 -100 0
182 179 -181 -99 -102 -100 0
-182 -179 -181 99 102 -100 0
-182 -179 -181 -99 -102 -100 0
184 181 -99 0
184 -181 99 0
-184 181 99 0
-184 -181 -99 0
183 102 -100 0
183 -102 100 0
-183 102 100 0
-183 -102 -100 0
185 -182 184 0
185 -182 98 0
-185 182 184 0
-185 182 98 0
185 -182 97 -100 0
185 -182 -97 100 0
-185 182 97 -100 0
-185 182 -97 100 0
185 182 -184 97 100 -98 0
185 182 -184 -97 -100 -98 0
-185 -182 -184 97 100 -98 0
-185 -182 -184 -97 -100 -98 0
187 184 -97 0
187 -184 97 0
-187 184 97 0
-187 -184 -97 0
186 100 -98 0
186 -100 98 0
-186 100 98 0
-186 -100 -98 0
188 -185 187 0
188 -185 96 0
-188 185 187 0
-188 185 96 0
188 -185 95 -98 0
188 -185 -95 98 0
-188 185 95 -98 0
-188 185 -95 98 0
188 185 -187 95 98 -96 0
188 185 -187 -95 -98 -96 0
-188 -185 -187 95 98 -96 0
-188 -185 -187 -95 -98 -96 0
190 187 -95 0
190 -187 95 0
-190 187 95 0
-190 -187 -95 0
189 98 -96 0
189 -98 96 0
-189 98 96 0
-189 -98 -96 0
191 -188 190 0
191 -188 94 0
-191 188 190 0
-191 188 94 0
191 -188 93 -96 0
191 -188 -93 96 0
-191 188 93 -96 0
-191 188 -93 96 0
191 188 -190 93 96 -94 0
191 188 -190 -93 -96 -94 0
-191 -188 -190 93 96 -94 0
-191 -188 -190 -93 -96 -94 0
193 190 -93 0
193 -190 93 0
-193 190 93 0
-193 -190 -93 0
192 96 -94 0
192 -96 94 0
-192 96 94 0
-192 -96 -94 0
194 -191 193 0
194 -191 92 0
-194 191 193 0
-194 191 92 0
194 -191 91 -94 0
194 -191 -91 94 0
-194 191 91 -94 0
-194 191 -91 94 0
194 191 -193 91 94 -92 0
194 191 -193 -91 -94 -92 0
-194 -191 -193 91 94 -92 0
-194 -191 -193 -91 -94 -92 0
196 193 -91 0
196 -193 91 0
-196 193 91 0
-196 -193 -91 0
195 94 -92 0
195 -94 92 0
-195 94 92 0
-195 -94 -92 0
197 -194 196 0
197 -194 90 0
-197 194 196 0
-197 194 90 0
197 -194 89 -92 0
197 -194 -89 92 0
-197 194 89 -92 0
-197 194 -89 92 0
197 194 -196 89 92 -90 0
197 194 -196 -89 -92 -90 0
-197 -194 -196 89 92 -90 0
-197 -194 -196 -89 -92 -90 0
199 196 -89 0
199 -196 89 0
-199 196 89 0
-199 -196 -89 0
198 92 -90 0
198 -92 90 0
-198 92 90 0
-198 -92 -90 0
200 -197 199 0
200 -197 88 0
-200 197 199 0
-200 197 88 0
200 -197 87 -90 0
200 -197 -87 90 0
-200 197 87 -90 0
-200 197 -87 90 0
200 197 -199 87 90 -88 0
200 197 -199 -87 -90 -88 0
-200 -197 -199 87 90 -88 0
-200 -197 -199 -87 -90 -88 0
202 199 -87 0
202 -199 87 0
-202 199 87 0
-202 -199 -87 0
201 90 -88 0
201 -90 88 0
-201 90 88 0
-201 -90 -88 0
203 -200 202 0
203 -200 86 0
-203 200 202 0
-203 200 86 0
203 -200 85 -88 0
203 -200 -85 88 0
-203 200 85 -88 0
-203 200 -85 88 0
203 200 -202 85 88 -86 0
203 200 -202 -85 -88 -86 0
-203 -200 -202 85 88 -86 0
-203 -200 -202 -85 -88 -86 0
205 202 -85 0
205 -202 85 0
-205 202 85 0
-205 -202 -85 0
204 88 -86 0
204 -88 86 0
-204 88 86 0
-204 -88 -86 0
206 -203 205 0
206 -203 84 0
-206 203 205 0
-206 203 84 0
206 -203 83 -86 0
206 -203 -83 86 0
-206 203 83 -86 0
-206 203 -83 86 0
206 203 -205 83 86 -84 0
206 203 -205 -83 -86 -84 0
-206 -203 -205 83 86 -84 0
-206 -203 -205 -83 -86 -84 0
208 205 -83 0
208 -205 83 0
-208 205 83 0
-208 -205 -83 0
207 86 -84 0
207 -86 84 0
-207 86 84 0
-207 -86 -84 0
209 -206 208 0
209 -206 82 0
-209 206 208 0
-209 206 82 0
209 -206 81 -84 0
209 -206 -81 84 0
-209 206 81 -84 0
-209 206 -81 84 0
209 206 -208 81 84 -82 0
209 206 -208 -81 -84 -82 0
-209 -206 -208 81 84 -82 0
-209 -206 -208 -81 -84 -82 0
211 208 -81 0
211 -208 81 0
-211 208 81 0
-211 -208 -81 0
210 84 -82 0
210 -84 82 0
-210 84 82 0
-210 -84 -82 0
212 -209 211 0
212 -209 80 0
-212 209 211 0
-212 209 80 0
212 -209 79 -82 0
212 -209 -79 82 0
-212 209 79 -82 0
-212 209 -79 82 0
212 209 -211 79 82 -80 0
212 209 -211 -79 -82 -80 0
-212 -209 -211 79 82 -80 0
-212 -209 -211 -79 -82 -80 0
214 211 -79 0
214 -211 79 0
-214 211 79 0
-214 -211 -79 0
213 82 -80 0
213 -82 80 0
-213 82 80 0
-213 -82 -80 0
215 -212 214 0
215 -212 78 0
-215 212 214 0
-215 212 78 0
215 -212 77 -80 0
215 -212 -77 80 0
-215 212 77 -80 0
-215 212 -77 80 0
215 212 -214 77 80 -78 0
215 212 -214 -77 -80 -78 0
-215 -212 -214 77 80 -78 0
-215 -212 -214 -77 -80 -78 0
217 214 -77 0
217 -214 77 0
-217 214 77 0
-217 -214 -77 0
216 80 -78 0
216 -80 78 0
-216 80 78 0
-216 -80 -78 0
218 -215 217 0
218 -215 76 0
-218 215 217 0
-218 215 76 0
218 -215 75 -78 0
218 -215 -75 78 0
-218 215 75 -78 0
-218 215 -75 78 0
218 215 -217 75 78 -76 0
218 215 -217 -75 -78 -76 0
-218 -215 -217 75 78 -76 0
-218 -215 -217 -75 -78 -76 0
220 217 -75 0
220 -217 75 0
-220 217 75 0
-220 -217 -75 0
219 78 -76 0
219 -78 76 0
-219 78 76 0
-219 -78 -76 0
221 -218 220 0
221 -218 74 0
-221 218 220 0
-221 218 74 0
221 -218 73 -76 0
221 -218 -73 76 0
-221 218 73 -76 0
-221 218 -73 76 0
221 218 -220 73 76 -74 0
221 218 -220 -73 -76 -74 0
-221 -218 -220 73 76 -74 0
-221 -218 -220 -73 -76 -74 0
223 220 -73 0
223 -220 73 0
-223 220 73 0
-223 -220 -73 0
222 76 -74 0
222 -76 74 0
-222 76 74 0
-222 -76 -74 0
224 -221 223 0
224 -221 72 0
-224 221 223 0
-224 221 72 0
224 -221 71 -74 0
224 -221 -71 74 0
-224 221 71 -74 0
-224 221 -71 74 0
224 221 -223 71 74 -72 0
224 221 -223 -71 -74 -72 0
-224 -221 -223 71 74 -72 0
-224 -221 -223 -71 -74 -72 0
226 223 -71 0
226 -223 71 0
-226 223 71 0
-226 -223 -71 0
225 74 -72 0
225 -74 72 0
-225 74 72 0
-225 -74 -72 0
227 -224 226 0
227 -224 70 0
-227 224 226 0
-227 224 70 0
227 -224 69 -72 0
227 -224 -69 72 0
-227 224 69 -72 0
-227 224 -69 72 0
227 224 -226 69 72 -70 0
227 224 -226 -69 -72 -70 0
-227 -224 -226 69 72 -70 0
-227 -224 -226 -69 -72 -70 0
229 226 -69 0
229 -226 69 0
-229 226 69 0
-229 -226 -69 0
228 72 -70 0
228 -72 70 0
-228 72 70 0
-228 -72 -70 0
230 -227 229 0
230 -227 68 0
-230 227 229 0
-230 227 68 0
230 -227 67 -70 0
230 -227 -67 70 0
-230 227 67 -70 0
-230 227 -67 70 0
230 227 -229 67 70 -68 0
230 227 -229 -67 -70 -68 0
-230 -227 -229 67 70 -68 0
-230 -227 -229 -67 -70 -68 0
232 229 -67 0
232 -229 67 0
-232 229 67 0
-232 -229 -67 0
231 70 -68 0
231 -70 68 0
-231 70 68 0
-231 -70 -68 0
233 -230 232 0
233 -230 66 0
-233 230 232 0
-233 230 66 0
233 -230 65 -68 0
233 -230 -65 68 0
-233 230 65 -68 0
-233 230 -65 68 0
233 230 -232 65 68 -66 0
233 230 -232 -65 -68 -66 0
-233 -230 -232 65 68 -66 0
-233 -230 -232 -65 -68 -66 0
235 232 -65 0
235 -232 65 0
-235 232 65 0
-235 -232 -65 0
234 68 -66 0
234 -68 66 0
-234 68 66 0
-234 -68 -66 0
236 -233 235 0
236 -233 64 0
-236 233 235 0
-236 233 64 0
236 -233 63 -66 0
236 -233 -63 66 0
-236 233 63 -66 0
-236 233 -63 66 0
236 233 -235 63 66 -64 0
236 233 -235 -63 -66 -64 0
-236 -233 -235 63 66 -64 0
-236 -233 -235 -63 -66 -64 0
238 235 -63 0
238 -235 63 0
-238 235 63 0
-238 -235 -63 0
237 66 -64 0
237 -66 64 0
-237 66 64 0
-237 -66 -64 0
239 -236 238 0
239 -236 62 0
-239 236 238 0
-239 236 62 0
239 -236 61 -64 0
239 -236 -61 64 0
-239 236 61 -64 0
-239 236 -61 64 0
239 236 -238 61 64 -62 0
239 236 -238 -61 -64 -62 0
-239 -236 -238 61 64 -62 0
-239 -236 -238 -61 -64 -62 0
241 238 -61 0
241 -238 61 0
-241 238 61 0
-241 -238 -61 0
240 64 -62 0
240 -64 62 0
-240 64 62 0
-240 -64 -62 0
242 -239 241 0
242 -239 60 0
-242 239 241 0
-242 239 60 0
242 -239 59 -62 0
242 -239 -59 62 0
-242 239 59 -62 0
-242 239 -59 62 0
242 239 -241 59 62 -60 0
242 239 -241 -59 -62 -60 0
-242 -239 -241 59 62 -60 0
-242 -239 -241 -59 -62 -60 0
244 241 -59 0
244 -241 59 0
-244 241 59 0
-244 -241 -59 0
243 62 -60 0
243 -62 60 0
-243 62 60 0
-243 -62 -60 0
245 -242 244 0
245 -242 58 0
-245 242 244 0
-245 242 58 0
245 -242 57 -60 0
245 -242 -57 60 0
-245 242 57 -60 0
-245 242 -57 60 0
245 242 -244 57 60 -58 0
245 242 -244 -57 -60 -58 0
-245 -242 -244 57 60 -58 0
-245 -242 -244 -57 -60 -58 0
247 244 -57 0
247 -244 57 0
-247 244 57 0
-247 -244 -57 0
246 60 -58 0
246 -60 58 0
-246 60 58 0
-246 -60 -58 0
248 -245 247 0
248 -245 56 0
-248 245 247 0
-248 245 56 0
248 -245 55 -58 0
248 -245 -55 58 0
-248 245 55 -58 0
-248 245 -55 58 0
248 245 -247 55 58 -56 0
248 245 -247 -55 -58 -56 0
-248 -245 -247 55 58 -56 0
-248 -245 -247 -55 -58 -56 0
250 247 -55 0
250 -247 55 0
-250 247 55 0
-250 -247 -55 0
249 58 -56 0
249 -58 56 0
-249 58 56 0
-249 -58 -56 0
251 -248 250 0
251 -248 54 0
-251 248 250 0
-251 248 54 0
251 -248 53 -56 0
251 -248 -53 56 0
-251 248 53 -56 0
-251 248 -53 56 0
251 248 -250 53 56 -54 0
251 248 -250 -53 -56 -54 0
-251 -248 -250 53 56 -54 0
-251 -248 -250 -53 -56 -54 0
253 250 -53 0
253 -250 53 0
-253 250 53 0
-253 -250 -53 0
252 56 -54 0
252 -56 54 0
-252 56 54 0
-252 -56 -54 0
254 -251 253 0
254 -251 52 0
-254 251 253 0
-254 251 52 0
254 -251 51 -54 0
254 -251 -51 54 0
-254 251 51 -54 0
-254 251 -51 54 0
254 251 -253 51 54 -52 0
254 251 -253 -51 -54 -52 0
-254 -251 -253 51 54 -52 0
-254 -251 -253 -51 -54 -52 0
256 253 -51 0
256 -253 51 0
-256 253 51 0
-256 -253 -51 0
255 54 -52 0
255 -54 52 0
-255 54 52 0
-255 -54 -52 0
257 -254 256 0
257 -254 50 0
-257 254 256 0
-257 254 50 0
257 -254 49 -52 0
257 -254 -49 52 0
-257 254 49 -52 0
-257 254 -49 52 0
257 254 -256 49 52 -50 0
257 254 -256 -49 -52 -50 0
-257 -254 -256 49 52 -50 0
-257 -254 -256 -49 -52 -50 0
259 256 -49 0
259 -256 49 0
-259 256 49 0
-259 -256 -49 0
258 52 -50 0
258 -52 50 0
-258 52 50 0
-258 -52 -50 0
260 -257 259 0
260 -257 48 0
-260 257 259 0
-260 257 48 0
260 -257 47 -50 0
260 -257 -47 50 0
-260 257 47 -50 0
-260 257 -47 50 0
260 257 -259 47 50 -48 0
260 257 -259 -47 -50 -48 0
-260 -257 -259 47 50 -48 0
-260 -257 -259 -47 -50 -48 0
262 259 -47 0
262 -259 47 0
-262 259 47 0
-262 -259 -47 0
261 50 -48 0
261 -50 48 0
-261 50 48 0
-261 -50 -48 0
263 -260 262 0
263 -260 46 0
-263 260 262 0
-263 260 46 0
263 -260 45 -48 0
263 -260 -45 48 0
-263 260 45 -48 0
-263 260 -45 48 0
263 260 -262 45 48 -46 0
263 260 -262 -45 -48 -46 0
-263 -260 -262 45 48 -46 0
-263 -260 -262 -45 -48 -46 0
265 262 -45 0
265 -262 45 0
-265 262 45 0
-265 -262 -45 0
264 48 -46 0
264 -48 46 0
-264 48 46 0
-264 -48 -46 0
266 -263 265 0
266 -263 44 0
-266 263 265 0
-266 263 44 0
266 -263 43 -46 0
266 -263 -43 46 0
-266 263 43 -46 0
-266 263 -43 46 0
266 263 -265 43 46 -44 0
266 263 -265 -43 -46 -44 0
-266 -263 -265 43 46 -44 0
-266 -263 -265 -43 -46 -44 0
268 265 -43 0
268 -265 43 0
-268 265 43 0
-268 -265 -43 0
267 46 -44 0
267 -46 44 0
-267 46 44 0
-267 -46 -44 0
269 -266 268 0
269 -266 42 0
-269 266 268 0
-269 266 42 0
269 -266 41 -44 0
269 -266 -41 44 0
-269 266 41 -44 0
-269 266 -41 44 0
269 266 -268 41 44 -42 0
269 266 -268 -41 -44 -42 0
-269 -266 -268 41 44 -42 0
-269 -266 -268 -41 -44 -42 0
271 268 -41 0
271 -268 41 0
-271 268 41 0
-271 -268 -41 0
270 44 -42 0
270 -44 42 0
-270 44 42 0
-270 -44 -42 0
272 -269 271 0
272 -269 40 0
-272 269 271 0
-272 269 40 0
272 -269 39 -42 0
272 -269 -39 42 0
-272 269 39 -42 0
-272 269 -39 42 0
272 269 -271 39 42 -40 0
272 269 -271 -39 -42 -40 0
-272 -269 -271 39 42 -40 0
-272 -269 -271 -39 -42 -40 0
274 271 -39 0
274 -271 39 0
-274 271 39 0
-274 -271 -39 0
273 42 -40 0
273 -42 40 0
-273 42 40 0
-273 -42 -40 0
275 -272 274 0
275 -272 38 0
-275 272 274 0
-275 272 38 0
275 -272 37 -40 0
275 -272 -37 40 0
-275 272 37 -40 0
-275 272 -37 40 0
275 272 -274 37 40 -38 0
275 272 -274 -37 -40 -38 0
-275 -272 -274 37 40 -38 0
-275 -272 -274 -37 -40 -38 0
277 274 -37 0
277 -274 37 0
-277 274 37 0
-277 -274 -37 0
276 40 -38 0
276 -40 38 0
-276 40 38 0
-276 -40 -38 0
278 -275 277 0
278 -275 36 0
-278 275 277 0
-278 275 36 0
278 -275 35 -38 0
278 -275 -35 38 0
-278 275 35 -38 0
-278 275 -35 38 0
278 275 -277 35 38 -36 0
278 275 -277 -35 -38 -36 0
-278 -275 -277 35 38 -36 0
-278 -275 -277 -35 -38 -36 0
280 277 -35 0
280 -277 35 0
-280 277 35 0
-280 -277 -35 0
279 38 -36 0
279 -38 36 0
-279 38 36 0
-279 -38 -36 0
281 -278 280 0
281 -278 34 0
-281 278 280 0
-281 278 34 0
281 -278 33 -36 0
281 -278 -33 36 0
-281 278 33 -36 0
-281 278 -33 36 0
281 278 -280 33 36 -34 0
281 278 -280 -33 -36 -34 0
-281 -278 -280 33 36 -34 0
-281 -278 -280 -33 -36 -34 0
283 280 -33 0
283 -280 33 0
-283 280 33 0
-283 -280 -33 0
282 36 -34 0
282 -36 34 0
-282 36 34 0
-282 -36 -34 0
284 -281 283 0
284 -281 32 0
-284 281 283 0
-284 281 32 0
284 -281 31 -34 0
284 -281 -31 34 0
-284 281 31 -34 0
-284 281 -31 34 0
284 281 -283 31 34 -32 0
284 281 -283 -31 -34 -32 0
-284 -281 -283 31 34 -32 0
-284 -281 -283 -31 -34 -32 0
286 283 -31 0
286 -283 31 0
-286 283 31 0
-286 -283 -31 0
285 34 -32 0
285 -34 32 0
-285 34 32 0
-285 -34 -32 0
287 -284 286 0
287 -284 30 0
-287 284 286 0
-287 284 30 0
287 -284 29 -32 0
287 -284 -29 32 0
-287 284 29 -32 0
-287 284 -29 32 0
287 284 -286 29 32 -30 0
287 284 -286 -29 -32 -30 0
-287 -284 -286 29 32 -30 0
-287 -284 -286 -29 -32 -30 0
289 286 -29 0
289 -286 29 0
-289 286 29 0
-289 -286 -29 0
288 32 -30 0
288 -32 30 0
-288 32 30 0
-288 -32 -30 0
290 -287 289 0
290 -287 28 0
-290 287 289 0
-290 287 28 0
290 -287 27 -30 0
290 -287 -27 30 0
-290 287 27 -30 0
-290 287 -27 30 0
290 287 -289 27 30 -28 0
290 287 -289 -27 -30 -28 0
-290 -287 -289 27 30 -28 0
-290 -287 -289 -27 -30 -28 0
292 289 -27 0
292 -289 27 0
-292 289 27 0
-292 -289 -27 0
291 30 -28 0
291 -30 28 0
-291 30 28 0
-291 -30 -28 0
293 -290 292 0
293 -290 26 0
-293 290 292 0
-293 290 26 0
293 -290 25 -28 0
293 -290 -25 28 0
-293 290 25 -28 0
-293 290 -25 28 0
293 290 -292 25 28 -26 0
293 290 -292 -25 -28 -26 0
-293 -290 -292 25 28 -26 0
-293 -290 -292 -25 -28 -26 0
295 292 -25 0
295 -292 25 0
-295 292 25 0
-295 -292 -25 0
294 28 -26 0
294 -28 26 0
-294 28 26 0
-294 -28 -26 0
296 -293 295 0
296 -293 24 0
-296 293 295 0
-296 293 24 0
296 -293 23 -26 0
296 -293 -23 26 0
-296 293 23 -26 0
-296 293 -23 26 0
296 293 -295 23 26 -24 0
296 293 -295 -23 -26 -24 0
-296 -293 -295 23 26 -24 0
-296 -293 -295 -23 -26 -24 0
298 295 -23 0
298 -295 23 0
-298 295 23 0
-298 -295 -23 0
297 26 -24 0
297 -26 24 0
-297 26 24 0
-297 -26 -24 0
299 -296 298 0
299 -296 22 0
-299 296 298 0
-299 296 22 0
299 -296 21 -24 0
299 -296 -21 24 0
-299 296 21 -24 0
-299 296 -21 24 0
299 296 -298 21 24 -22 0
299 296 -298 -21 -24 -22 0
-299 -296 -298 21 24 -22 0
-299 -296 -298 -21 -24 -22 0
301 298 -21 0
301 -298 21 0
-301 298 21 0
-301 -298 -21 0
300 24 -22 0
300 -24 22 0
-300 24 22 0
-300 -24 -22 0
302 -299 301 0
302 -299 20 0
-302 299 301 0
-302 299 20 0
302 -299 19 -22 0
302 -299 -19 22 0
-302 299 19 -22 0
-302 299 -19 22 0
302 299 -301 19 22 -20 0
302 299 -301 -19 -22 -20 0
-302 -299 -301 19 22 -20 0
-302 -299 -301 -19 -22 -20 0
304 301 -19 0
304 -301 19 0
-304 301 19 0
-304 -301 -19 0
303 22 -20 0
303 -22 20 0
-303 22 20 0
-303 -22 -20 0
305 -302 304 0
305 -302 18 0
-305 302 304 0
-305 302 18 0
305 -302 17 -20 0
305 -302 -17 20 0
-305 302 17 -20 0
-305 302 -17 20 0
305 302 -304 17 20 -18 0
305 302 -304 -17 -20 -18 0
-305 -302 -304 17 20 -18 0
-305 -302 -304 -17 -20 -18 0
307 304 -17 0
307 -304 17 0
-307 304 17 0
-307 -304 -17 0
306 20 -18 0
306 -20 18 0
-306 20 18 0
-306 -20 -18 0
308 -305 307 0
308 -305 16 0
-308 305 307 0
-308 305 16 0
308 -305 15 -18 0
308 -305 -15 18 0
-308 305 15 -18 0
-308 305 -15 18 0
308 305 -307 15 18 -16 0
308 305 -307 -15 -18 -16 0
-308 -305 -307 15 18 -16 0
-308 -305 -307 -15 -18 -16 0
310 307 -15 0
310 -307 15 0
-310 307 15 0
-310 -307 -15 0
309 18 -16 0
309 -18 16 0
-309 18 16 0
-309 -18 -16 0
311 -308 310 0
311 -308 14 0
-311 308 310 0
-311 308 14 0
311 -308 13 -16 0
311 -308 -13 16 0
-311 308 13 -16 0
-311 308 -13 16 0
311 308 -310 13 16 -14 0
311 308 -310 -13 -16 -14 0
-311 -308 -310 13 16 -14 0
-311 -308 -310 -13 -16 -14 0
313 310 -13 0
313 -310 13 0
-313 310 13 0
-313 -310 -13 0
312 16 -14 0
312 -16 14 0
-312 16 14 0
-312 -16 -14 0
314 -311 313 0
314 -311 12 0
-314 311 313 0
-314 311 12 0
314 -311 11 -14 0
314 -311 -11 14 0
-314 311 11 -14 0
-314 311 -11 14 0
314 311 -313 11 14 -12 0
314 311 -313 -11 -14 -12 0
-314 -311 -313 11 14 -12 0
-314 -311 -313 -11 -14 -12 0
316 313 -11 0
316 -313 11 0
-316 313 11 0
-316 -313 -11 0
315 14 -12 0
315 -14 12 0
-315 14 12 0
-315 -14 -12 0
317 -314 316 0
317 -314 10 0
-317 314 316 0
-317 314 10 0
317 -314 9 -12 0
317 -314 -9 12 0
-317 314 9 -12 0
-317 314 -9 12 0
317 314 -316 9 12 -10 0
317 314 -316 -9 -12 -10 0
-317 -314 -316 9 12 -10 0
-317 -314 -316 -9 -12 -10 0
319 316 -9 0
319 -316 9 0
-319 316 9 0
-319 -316 -9 0
318 12 -10 0
318 -12 10 0
-318 12 10 0
-318 -12 -10 0
320 -317 319 0
320 -317 8 0
-320 317 319 0
-320 317 8 0
320 -317 7 -10 0
320 -317 -7 10 0
-320 317 7 -10 0
-320 317 -7 10 0
320 317 -319 7 10 -8 0
320 317 -319 -7 -10 -8 0
-320 -317 -319 7 10 -8 0
-320 -317 -319 -7 -10 -8 0
322 319 -7 0
322 -319 7 0
-322 319 7 0
-322 -319 -7 0
321 10 -8 0
321 -10 8 0
-321 10 8 0
-321 -10 -8 0
323 -320 322 0
323 -320 6 0
-323 320 322 0
-323 320 6 0
323 -320 5 -8 0
323 -320 -5 8 0
-323 320 5 -8 0
-323 320 -5 8 0
323 320 -322 5 8 -6 0
323 320 -322 -5 -8 -6 0
-323 -320 -322 5 8 -6 0
-323 -320 -322 -5 -8 -6 0
325 322 -5 0
325 -322 5 0
-325 322 5 0
-325 -322 -5 0
324 8 -6 0
324 -8 6 0
-324 8 6 0
-324 -8 -6 0
326 -323 325 0
326 -323 4 0
-326 323 325 0
-326 323 4 0
326 -323 3 -6 0
326 -323 -3 6 0
-326 323 3 -6 0
-326 323 -3 6 0
326 323 -325 3 6 -4 0
326 323 -325 -3 -6 -4 0
-326 -323 -325 3 6 -4 0
-326 -323 -325 -3 -6 -4 0
328 325 -3 0
328 -325 3 0
-328 325 3 0
-328 -325 -3 0
327 6 -4 0
327 -6 4 0
-327 6 4 0
-327 -6 -4 0
329 -326 328 0
329 -326 2 0
-329 326 328 0
-329 326 2 0
329 -326 1 -4 0
329 -326 -1 4 0
-329 326 1 -4 0
-329 326 -1 4 0
329 326 -328 1 4 -2 0
329 326 -328 -1 -4 -2 0
-329 -326 -328 1 4 -2 0
-329 -326 -328 -1 -4 -2 0
331 328 -1 0
331 -328 1 0
-331 328 1 0
-331 -328 -1 0
330 4 -2 0
330 -4 2 0
-330 4 2 0
-330 -4 -2 0
-331 0
-328 0
-330 0
-325 0
-327 0
-322 0
-324 0
-319 0
-321 0
-316 0
-318 0
-313 0
-315 0
-310 0
-312 0
-307 0
-309 0
-304 0
-306 0
-301 0
-303 0
-298 0
-300 0
-295 0
-297 0
-292 0
-294 0
-289 0
-291 0
-286 0
-288 0
-283 0
-285 0
-280 0
-282 0
-277 0
-279 0
-274 0
-276 0
-271 0
-273 0
-268 0
-270 0
-265 0
-267 0
-262 0
-264 0
-259 0
-261 0
-256 0
-258 0
-253 0
-255 0
-250 0
-252 0
-247 0
-249 0
-244 0
-246 0
-241 0
-243 0
-238 0
-240 0
-235 0
-237 0
-232 0
-234 0
-229 0
-231 0
-226 0
-228 0
-223 0
-225 0
-220 0
-222 0
-217 0
-219 0
-214 0
-216 0
-211 0
-213 0
-208 0
-210 0
-205 0
-207 0
-202 0
-204 0
-199 0
-201 0
-196 0
-198 0
-193 0
-195 0
-190 0
-192 0
-187 0
-189 0
-184 0
-186 0
-181 0
-183 0
-178 0
-180 0
-175 0
-177 0
-172 0
-174 0
-169 0
-171 0
-166 0
-168 0
-163 0
-165 0
-160 0
-162 0
-157 0
-159 0
-154 0
-156 0
-151 0
-153 0
-148 0
-150 0
-145 0
-147 0
-142 0
-144 0
-135 0
-141 0
